S = 5;
start = [|0,0,7,20,22,0,0,21,0,0,0,0,0,18,0,0,0,14,0,0,19,0,0,23,12|
10,21,18,2,0,0,0,0,0,0,0,19,0,0,11,23,9,0,0,3,0,0,0,0,0|
0,0,0,1,0,0,13,0,0,25,0,22,0,10,0,0,0,12,17,0,0,0,0,3,20|
0,0,0,19,0,0,0,7,4,0,1,0,0,25,3,0,0,0,0,0,0,0,0,0,17|
0,13,0,0,3,0,11,9,0,0,0,0,20,0,0,0,0,0,0,0,15,0,0,0,0|
11,25,0,0,0,0,0,1,13,0,0,14,6,0,0,0,0,5,0,0,0,0,10,0,24|
0,0,0,15,0,0,16,0,0,0,0,0,0,0,0,0,0,0,0,0,0,1,0,0,0|
0,0,0,0,6,0,0,0,12,0,0,0,0,0,0,0,25,21,0,24,0,0,0,0,0|
0,0,0,0,9,0,0,0,0,0,0,0,0,0,0,0,17,1,0,0,0,0,0,0,0|
0,0,0,0,0,17,14,24,0,0,0,21,0,9,19,3,11,0,0,0,6,0,0,0,5|
0,3,0,14,2,0,0,22,8,0,21,25,0,5,0,24,0,4,0,10,1,0,20,0,0|
0,0,0,0,0,1,24,0,0,0,13,0,0,0,22,0,0,3,8,0,9,0,0,17,0|
0,8,0,0,0,0,0,0,0,0,0,2,9,24,0,0,0,0,21,0,0,0,22,0,7|
22,19,0,0,1,0,0,0,25,0,0,23,0,0,14,6,0,17,0,7,0,13,0,10,3|
15,0,24,0,0,0,0,0,2,0,0,0,0,0,0,13,0,0,0,0,18,0,5,14,8|
0,0,0,0,4,0,5,14,0,0,0,13,0,0,10,0,0,0,0,0,0,23,0,0,0|
3,0,0,0,14,20,0,0,0,0,16,0,0,21,0,0,0,0,2,0,0,24,0,0,0|
0,2,13,0,16,24,0,0,0,23,0,0,25,0,6,0,0,10,0,21,0,3,18,0,0|
0,12,0,10,0,0,0,8,0,0,7,0,3,0,0,0,0,0,0,0,0,0,0,0,19|
0,0,0,0,18,0,6,3,0,0,9,0,0,23,0,25,16,0,14,12,22,0,0,0,0|
2,10,0,0,7,18,4,0,0,0,0,0,19,15,0,0,23,0,13,0,0,22,0,5,0|
0,1,6,3,0,0,0,0,0,13,0,0,0,0,8,22,0,0,0,5,0,16,4,0,0|
0,20,0,5,19,15,0,0,0,8,11,4,0,0,0,0,0,0,18,0,0,0,0,0,0|
0,0,11,0,0,0,0,5,6,0,0,0,0,0,0,0,7,2,0,0,10,15,0,0,0|
0,0,0,12,13,0,0,0,0,0,0,7,5,0,23,15,21,0,0,6,0,0,17,0,1|];